NAME : rnd55_20.tsp
TYPE : TSP
DIMENSION : 20
EDGE_WEIGHT_TYPE : EUC_2D
NODE_COORD_SECTION
0 837 573
1 168 227
2 861 234
3 929 769
4 936 923
5 213 252
6 419 503
7 858 227
8 834 789
9 250 823
10 29 642
11 245 36
12 87 656
13 316 425
14 435 669
15 587 506
16 401 532
17 686 646
18 887 880
19 798 793
